Speck32/MILP/sol/6Round_1007.sol
# Objective value = 16.000000000000004
pro0Rd0 -0.0
pro1Rd0 1.0000000000000002
pro2Rd0 -6.38378239159465e-16
pro3Rd0 1.0000000000000002
pro4Rd0 -1.6534083130403943e-16
pro5Rd0 1.0
pro6Rd0 -0.0
pro7Rd0 -7.589415207398531e-18
pro8Rd0 -2.0499552576269675e-16
pro9Rd0 -5.273559366969494e-16
pro10Rd0 0.0
pro11Rd0 -0.0
pro12Rd0 1.0
pro13Rd0 1.2487298521601797e-16
pro14Rd0 -1.5070410197548512e-17
pro0Rd1 -2.0499552576269675e-16
pro1Rd1 0.0
pro2Rd1 1.248594326888619e-16
pro3Rd1 -0.0
pro4Rd1 -0.0
pro5Rd1 -4.718447854656915e-16
pro6Rd1 2.498001805406602e-16
pro7Rd1 -1.2957571213917385e-16
pro8Rd1 1.0
pro9Rd1 -2.905661822261152e-17
pro10Rd1 1.0
pro11Rd1 -1.5200514458246772e-16
pro12Rd1 -1.1145598333150986e-16
pro13Rd1 -1.5200514458246772e-16
pro14Rd1 -0.0
pro0Rd2 -0.0
pro1Rd2 -2.905661822261152e-17
pro2Rd2 1.6375789613221059e-15
pro3Rd2 -1.9038590148845458e-16
pro4Rd2 -1.5200514458246772e-16
pro5Rd2 1.248594326888619e-16
pro6Rd2 -0.0
pro7Rd2 1.248594326888619e-16
pro8Rd2 -0.0
pro9Rd2 -0.0
pro10Rd2 -0.0
pro11Rd2 0.0
pro12Rd2 -1.9038590148845458e-16
pro13Rd2 0.0
pro14Rd2 -5.551115123125783e-17
pro0Rd3 1.8735013540549517e-16
pro1Rd3 1.8735013540549517e-16
pro2Rd3 1.8735013540549517e-16
pro3Rd3 1.3877787807814457e-16
pro4Rd3 -0.0
pro5Rd3 -0.0
pro6Rd3 1.0
pro7Rd3 -0.0
pro8Rd3 0.0
pro9Rd3 3.885780586188048e-16
pro10Rd3 -0.0
pro11Rd3 1.1102230246251565e-15
pro12Rd3 3.3306690738754696e-16
pro13Rd3 -0.0
pro14Rd3 -0.0
pro0Rd4 0.0
pro1Rd4 -0.0
pro2Rd4 -1.1379786002407855e-15
pro3Rd4 1.1102230246251565e-15
pro4Rd4 -1.5543122344752192e-15
pro5Rd4 -1.8735013540549517e-16
pro6Rd4 1.0000000000000004
pro7Rd4 4.7271214720367993e-17
pro8Rd4 2.0231212538579513e-16
pro9Rd4 -0.0
pro10Rd4 0.0
pro11Rd4 1.1102230246251565e-15
pro12Rd4 1.1102230246251565e-15
pro13Rd4 1.0
pro14Rd4 -0.0
pro0Rd5 0.0
pro1Rd5 0.0
pro2Rd5 -0.0
pro3Rd5 1.1102230246251565e-15
pro4Rd5 1.0
pro5Rd5 -1.8735013540549517e-16
pro6Rd5 1.0
pro7Rd5 1.942890293094024e-16
pro8Rd5 1.0
pro9Rd5 1.0
pro10Rd5 1.0
pro11Rd5 1.0
pro12Rd5 -2.648055386078596e-15
pro13Rd5 1.0
pro14Rd5 -1.0408340855860843e-16
p0 -3.0401028916493544e-16
p1 -7.589415207398531e-18
p2 -2.0499552576269675e-16
p3 -3.7470027081099033e-16
p4 -0.0
p5 1.248594326888619e-16
p6 1.0
p7 -0.0
p8 -2.7755575615628914e-17
p9 0.0
p10 -4.718447854656915e-16
p11 0.9999999999999986
p12 -5.551115123125783e-16
p13 -4.809520837145698e-16
p14 -0.0
p15 0.9999999999999998
p16 -1.5200514458246772e-16
p17 -4.718447854656915e-16
p18 0.0
p19 3.0531133177191805e-16
p20 1.0
p21 -1.6534083130403943e-16
p22 1.0
p23 -3.0054084221298183e-16
p24 -1.5178830414797062e-17
p25 -4.099910515253935e-16
p26 -6.38378239159465e-16
p27 0.0
p28 1.248594326888619e-16
p29 1.0
p30 1.248594326888619e-16
p31 -2.905661822261152e-17
p0Rd1 2.498001805406602e-16
p16Rd1 -1.5200514458246772e-16
temp0Rnd0 0.0
p1Rd1 -4.718447854656915e-16
p17Rd1 4.651227319962814e-17
temp1Rnd0 3.0531133177191805e-16
p2Rd1 1.0
p18Rd1 0.0
temp2Rnd0 1.0
p3Rd1 -2.905661822261152e-17
p19Rd1 1.248594326888619e-16
temp3Rnd0 -2.905661822261152e-17
p4Rd1 1.0
p20Rd1 -0.0
temp4Rnd0 1.0
p5Rd1 -3.0054084221298183e-16
p21Rd1 -0.0
temp5Rnd0 -3.0054084221298183e-16
p6Rd1 -1.5178830414797062e-17
p22Rd1 0.0
temp6Rnd0 -1.5178830414797062e-17
p7Rd1 -3.0401028916493544e-16
p23Rd1 9.302454639925628e-17
temp7Rnd0 -3.0401028916493544e-16
p8Rd1 0.0
p24Rd1 -6.38378239159465e-16
temp8Rnd0 -6.38378239159465e-16
p9Rd1 -0.0
p25Rd1 -0.0
temp9Rnd0 0.0
p10Rd1 -7.600257229123386e-17
p26Rd1 1.1102230246251565e-16
temp10Rnd0 8.326672684688674e-17
p11Rd1 0.0
p27Rd1 1.0
temp11Rnd0 1.0
p12Rd1 1.248594326888619e-16
p28Rd1 0.0
temp12Rnd0 1.248594326888619e-16
p13Rd1 -0.0
p29Rd1 -2.905661822261152e-17
temp13Rnd0 -2.905661822261152e-17
p14Rd1 -0.0
p30Rd1 -1.5200514458246772e-16
temp14Rnd0 -1.5200514458246772e-16
p15Rd1 -5.828670879282072e-16
p31Rd1 -0.0
temp15Rnd0 -4.718447854656915e-16
temp0 -1.5070410197548512e-17
p0Rd2 0.0
p16Rd2 -0.0
temp0Rnd1 -0.0
p1Rd2 1.248594326888619e-16
p17Rd2 0.0
temp1Rnd1 1.248594326888619e-16
p2Rd2 -0.0
p18Rd2 0.0
temp2Rnd1 0.0
p3Rd2 0.0
p19Rd2 0.0
temp3Rnd1 -0.0
p4Rd2 -0.0
p20Rd2 0.0
temp4Rnd1 -0.0
p5Rd2 -0.0
p21Rd2 9.302454639925628e-17
temp5Rnd1 9.302454639925628e-17
p6Rd2 -4.718447854656915e-16
p22Rd2 1.248594326888619e-16
temp6Rnd1 -6.38378239159465e-16
p7Rd2 -0.0
p23Rd2 0.0
temp7Rnd1 -0.0
p8Rd2 -5.551115123125783e-17
p24Rd2 1.248594326888619e-16
temp8Rnd1 -5.551115123125783e-17
p9Rd2 1.0
p25Rd2 0.0
temp9Rnd1 1.0
p10Rd2 0.0
p26Rd2 0.0
temp10Rnd1 0.0
p11Rd2 -2.905661822261152e-17
p27Rd2 -0.0
temp11Rnd1 -2.905661822261152e-17
p12Rd2 -1.5200514458246772e-16
p28Rd2 -0.0
temp12Rnd1 -1.5200514458246772e-16
p13Rd2 -1.9038590148845458e-16
p29Rd2 -1.9038590148845458e-16
temp13Rnd1 -1.9038590148845458e-16
p14Rd2 -1.5200514458246772e-16
p30Rd2 -0.0
temp14Rnd1 -1.5200514458246772e-16
p15Rd2 -0.0
p31Rd2 -5.551115123125783e-17
temp15Rnd1 3.469446951953614e-16
temp1 0.0
p0Rd3 1.0
p16Rd3 1.0
temp0Rnd2 1.0
p1Rd3 0.0
p17Rd3 0.0
temp1Rnd2 0.0
p2Rd3 -0.0
p18Rd3 0.0
temp2Rnd2 -0.0
p3Rd3 1.6375789613221059e-15
p19Rd3 1.3877787807814457e-16
temp3Rnd2 1.3877787807814457e-16
p4Rd3 -1.9038590148845458e-16
p20Rd3 2.38524477946811e-16
temp4Rnd2 2.38524477946811e-16
p5Rd3 0.0
p21Rd3 0.0
temp5Rnd2 0.0
p6Rd3 1.248594326888619e-16
p22Rd3 -0.0
temp6Rnd2 1.248594326888619e-16
p7Rd3 -0.0
p23Rd3 0.0
temp7Rnd2 0.0
p8Rd3 -0.0
p24Rd3 0.0
temp8Rnd2 0.0
p9Rd3 0.0
p25Rd3 0.0
temp9Rnd2 0.0
p10Rd3 0.0
p26Rd3 0.0
temp10Rnd2 0.0
p11Rd3 0.0
p27Rd3 -1.9038590148845458e-16
temp11Rnd2 -1.9038590148845458e-16
p12Rd3 -0.0
p28Rd3 -0.0
temp12Rnd2 0.0
p13Rd3 2.7755575615628914e-16
p29Rd3 1.7763568394002505e-15
temp13Rnd2 2.7755575615628914e-16
p14Rd3 0.0
p30Rd3 -0.0
temp14Rnd2 -0.0
p15Rd3 0.0
p31Rd3 -0.0
temp15Rnd2 -0.0
temp2 -5.551115123125783e-17
p0Rd4 1.0000000000000002
p16Rd4 1.0000000000000002
temp0Rnd3 1.0000000000000002
p1Rd4 1.8735013540549517e-16
p17Rd4 6.522560269672795e-16
temp1Rnd3 6.522560269672795e-16
p2Rd4 1.8735013540549517e-16
p18Rd4 -1.9038590148845458e-16
temp2Rnd3 1.8735013540549517e-16
p3Rd4 0.0
p19Rd4 0.0
temp3Rnd3 0.0
p4Rd4 -7.771561172376096e-16
p20Rd4 -0.0
temp4Rnd3 -3.885780586188048e-16
p5Rd4 -0.0
p21Rd4 0.0
temp5Rnd3 -0.0
p6Rd4 -0.0
p22Rd4 0.0
temp6Rnd3 0.0
p7Rd4 1.0
p23Rd4 1.0
temp7Rnd3 1.0
p8Rd4 -0.0
p24Rd4 0.0
temp8Rnd3 0.0
p9Rd4 -0.0
p25Rd4 -1.9038590148845458e-16
temp9Rnd3 -1.9038590148845458e-16
p10Rd4 3.885780586188048e-16
p26Rd4 3.885780586188048e-16
temp10Rnd3 3.885780586188048e-16
p11Rd4 -1.9038590148845458e-16
p27Rd4 -5.551115123125783e-16
temp11Rnd3 -0.0
p12Rd4 1.1102230246251565e-15
p28Rd4 1.1102230246251565e-15
temp12Rnd3 1.1102230246251565e-15
p13Rd4 1.1102230246251565e-15
p29Rd4 1.1102230246251565e-15
temp13Rnd3 1.1102230246251565e-15
p14Rd4 -0.0
p30Rd4 1.0
temp14Rnd3 1.0
p15Rd4 0.0
p31Rd4 -0.0
temp15Rnd3 0.0
temp3 0.0
p0Rd5 0.9999999999999992
p16Rd5 1.0
temp0Rnd4 0.9999999999999977
p1Rd5 -0.0
p17Rd5 7.216449660063518e-16
temp1Rnd4 3.0531133177191805e-16
p2Rd5 4.440892098500626e-16
p18Rd5 -7.771561172376096e-16
temp2Rnd4 -0.0
p3Rd5 -1.4710455076283324e-15
p19Rd5 2.220446049250313e-15
temp3Rnd4 -3.3306690738754696e-16
p4Rd5 -0.0
p20Rd5 -0.0
temp4Rnd4 -0.0
p5Rd5 -1.5543122344752192e-15
p21Rd5 1.0000000000000013
temp5Rnd4 1.0
p6Rd5 -1.8735013540549517e-16
p22Rd5 -1.8735013540549517e-16
temp6Rnd4 -1.8735013540549517e-16
p7Rd5 -0.0
p23Rd5 -1.9038590148845458e-16
temp7Rnd4 -1.9038590148845458e-16
p8Rd5 4.7271214720367993e-17
p24Rd5 8.326672684688674e-17
temp8Rnd4 8.326672684688674e-17
p9Rd5 1.9081958235744878e-17
p25Rd5 1.4988010832439613e-15
temp9Rnd4 -0.0
p10Rd5 7.216449660063518e-16
p26Rd5 -0.0
temp10Rnd4 5.551115123125783e-16
p11Rd5 -6.661338147750939e-16
p27Rd5 0.0
temp11Rnd4 0.0
p12Rd5 2.220446049250313e-15
p28Rd5 0.9999999999999976
temp12Rnd4 1.0
p13Rd5 2.220446049250313e-15
p29Rd5 2.220446049250313e-15
temp13Rnd4 2.220446049250313e-15
p14Rd5 -0.0
p30Rd5 1.0000000000000002
temp14Rnd4 1.0000000000000002
p15Rd5 0.0
p31Rd5 6.522560269672795e-16
temp15Rnd4 6.522560269672795e-16
temp4 0.0
p0Rd6 1.0
p16Rd6 1.0
temp0Rnd5 1.0000000000000009
p1Rd6 6.938893903907228e-16
p17Rd6 -0.0
temp1Rnd5 1.3739009929736312e-15
p2Rd6 -7.771561172376096e-16
p18Rd6 -7.771561172376096e-16
temp2Rnd5 -7.771561172376096e-16
p3Rd6 2.220446049250313e-15
p19Rd6 0.9999999999999956
temp3Rnd5 1.0
p4Rd6 1.1102230246251565e-15
p20Rd6 9.046582927219049e-16
temp4Rnd5 9.046582927219049e-16
p5Rd6 1.0000000000000002
p21Rd6 1.0
temp5Rnd5 1.0
p6Rd6 8.326672684688674e-17
p22Rd6 -0.0
temp6Rnd5 8.326672684688674e-17
p7Rd6 0.9999999999999984
p23Rd6 1.0
temp7Rnd5 0.9999999999999982
p8Rd6 -0.0
p24Rd6 6.661338147750939e-16
temp8Rnd5 -0.0
p9Rd6 1.0
p25Rd6 1.0
temp9Rnd5 1.0
p10Rd6 0.9999999999999996
p26Rd6 -0.0
temp10Rnd5 0.9999999999999976
p11Rd6 1.0
p27Rd6 1.0
temp11Rnd5 1.000000000000002
p12Rd6 1.0
p28Rd6 1.8735013540549517e-16
temp12Rnd5 1.0
p13Rd6 -4.9439619065339e-16
p29Rd6 1.1102230246251565e-16
temp13Rnd5 1.1102230246251565e-16
p14Rd6 0.9999999999999996
p30Rd6 1.6653345369377348e-16
temp14Rnd5 1.0
p15Rd6 -3.400058012914542e-16
p31Rd6 -0.0
temp15Rnd5 1.249000902703301e-16
temp5 1.249000902703301e-16
